WARNING: for repeatability, setting FPU to use double precision
============================[ Problem Statistics ]=============================
|                                                                             |
|  Number of variables:           100                                         |
|  Number of clauses:             449                                         |
|  Parse time:                   0.00 s                                       |
|  Eliminated clauses:           0.00 Mb                                      |
|  Simplification time:          0.00 s                                       |
|                                                                             |
============================[ Search Statistics ]==============================
| Conflicts |          ORIGINAL         |          LEARNT          | Progress |
|           |    Vars  Clauses Literals |    Limit  Clauses Lit/Cl |          |
===============================================================================
|       100 |      98      446     1351 |      163      100      7 |  0.010 % |
|       250 |      97      433     1312 |      179       79      5 |  1.140 % |
===============================================================================
restarts              : 3
conflicts             : 283            (inf /sec)
decisions             : 340            (0.00 % random) (inf /sec)
propagations          : 6440           (inf /sec)
conflict literals     : 1573           (22.66 % deleted)
Memory used           : 13.00 MB
CPU time              : 0 s

SATISFIABLE
